c t mc
c file track1_121.cnf
p cnf 420 1791
-1 -211 0
-2 -212 0
-3 -213 0
-4 -214 0
-5 -215 0
-6 -216 0
-7 -217 0
-8 -218 0
-9 -219 0
-10 -220 0
-11 -221 0
-12 -222 0
-13 -223 0
-14 -224 0
-15 -225 0
-16 -226 0
-17 -227 0
-18 -228 0
-19 -229 0
-20 -230 0
-21 -231 0
-22 -232 0
-23 -233 0
-24 -234 0
-25 -235 0
-26 -236 0
-27 -237 0
-28 -238 0
-29 -239 0
-30 -240 0
-31 -241 0
-32 -242 0
-33 -243 0
-34 -244 0
-35 -245 0
-36 -246 0
-37 -247 0
-38 -248 0
-39 -249 0
-40 -250 0
-41 -251 0
-42 -252 0
-43 -253 0
-44 -254 0
-45 -255 0
-46 -256 0
-47 -257 0
-48 -258 0
-49 -259 0
-50 -260 0
-51 -261 0
-52 -262 0
-53 -263 0
-54 -264 0
-55 -265 0
-56 -266 0
-57 -267 0
-58 -268 0
-59 -269 0
-60 -270 0
-61 -271 0
-62 -272 0
-63 -273 0
-64 -274 0
-65 -275 0
-66 -276 0
-67 -277 0
-68 -278 0
-69 -279 0
-70 -280 0
-71 -281 0
-72 -282 0
-73 -283 0
-74 -284 0
-75 -285 0
-76 -286 0
-77 -287 0
-78 -288 0
-79 -289 0
-80 -290 0
-81 -291 0
-82 -292 0
-83 -293 0
-84 -294 0
-85 -295 0
-86 -296 0
-87 -297 0
-88 -298 0
-89 -299 0
-90 -300 0
-91 -301 0
-92 -302 0
-93 -303 0
-94 -304 0
-95 -305 0
-96 -306 0
-97 -307 0
-98 -308 0
-99 -309 0
-100 -310 0
-101 -311 0
-102 -312 0
-103 -313 0
-104 -314 0
-105 -315 0
-106 -316 0
-107 -317 0
-108 -318 0
-109 -319 0
-110 -320 0
-111 -321 0
-112 -322 0
-113 -323 0
-114 -324 0
-115 -325 0
-116 -326 0
-117 -327 0
-118 -328 0
-119 -329 0
-120 -330 0
-121 -331 0
-122 -332 0
-123 -333 0
-124 -334 0
-125 -335 0
-126 -336 0
-127 -337 0
-128 -338 0
-129 -339 0
-130 -340 0
-131 -341 0
-132 -342 0
-133 -343 0
-134 -344 0
-135 -345 0
-136 -346 0
-137 -347 0
-138 -348 0
-139 -349 0
-140 -350 0
-141 -351 0
-142 -352 0
-143 -353 0
-144 -354 0
-145 -355 0
-146 -356 0
-147 -357 0
-148 -358 0
-149 -359 0
-150 -360 0
-151 -361 0
-152 -362 0
-153 -363 0
-154 -364 0
-155 -365 0
-156 -366 0
-157 -367 0
-158 -368 0
-159 -369 0
-160 -370 0
-161 -371 0
-162 -372 0
-163 -373 0
-164 -374 0
-165 -375 0
-166 -376 0
-167 -377 0
-168 -378 0
-169 -379 0
-170 -380 0
-171 -381 0
-172 -382 0
-173 -383 0
-174 -384 0
-175 -385 0
-176 -386 0
-177 -387 0
-178 -388 0
-179 -389 0
-180 -390 0
-181 -391 0
-182 -392 0
-183 -393 0
-184 -394 0
-185 -395 0
-186 -396 0
-187 -397 0
-188 -398 0
-189 -399 0
-190 -400 0
-191 -401 0
-192 -402 0
-193 -403 0
-194 -404 0
-195 -405 0
-196 -406 0
-197 -407 0
-198 -408 0
-199 -409 0
-200 -410 0
-201 -411 0
-202 -412 0
-203 -413 0
-204 -414 0
-205 -415 0
-206 -416 0
-207 -417 0
-208 -418 0
-209 -419 0
-210 -420 0
-8 0
-218 0
121 0
-331 0
-135 0
345 0
1 211 27 237 0
-1 211 -27 237 0
1 -211 27 -237 0
1 211 66 276 0
-1 211 -66 276 0
1 -211 66 -276 0
1 211 127 337 0
-1 211 -127 337 0
1 -211 127 -337 0
1 211 204 414 0
-1 211 -204 414 0
1 -211 204 -414 0
1 211 180 390 0
-1 211 -180 390 0
1 -211 180 -390 0
2 212 87 297 0
-2 212 -87 297 0
2 -212 87 -297 0
2 212 134 344 0
-2 212 -134 344 0
2 -212 134 -344 0
2 212 129 339 0
-2 212 -129 339 0
2 -212 129 -339 0
2 212 104 314 0
-2 212 -104 314 0
2 -212 104 -314 0
2 212 125 335 0
-2 212 -125 335 0
2 -212 125 -335 0
3 213 188 398 0
-3 213 -188 398 0
3 -213 188 -398 0
3 213 132 342 0
-3 213 -132 342 0
3 -213 132 -342 0
3 213 85 295 0
-3 213 -85 295 0
3 -213 85 -295 0
3 213 17 227 0
-3 213 -17 227 0
3 -213 17 -227 0
3 213 74 284 0
-3 213 -74 284 0
3 -213 74 -284 0
4 214 209 419 0
-4 214 -209 419 0
4 -214 209 -419 0
4 214 153 363 0
-4 214 -153 363 0
4 -214 153 -363 0
4 214 95 305 0
-4 214 -95 305 0
4 -214 95 -305 0
4 214 158 368 0
-4 214 -158 368 0
4 -214 158 -368 0
4 214 45 255 0
-4 214 -45 255 0
4 -214 45 -255 0
5 215 117 327 0
-5 215 -117 327 0
5 -215 117 -327 0
5 215 170 380 0
-5 215 -170 380 0
5 -215 170 -380 0
5 215 156 366 0
-5 215 -156 366 0
5 -215 156 -366 0
5 215 181 391 0
-5 215 -181 391 0
5 -215 181 -391 0
5 215 161 371 0
-5 215 -161 371 0
5 -215 161 -371 0
6 216 109 319 0
-6 216 -109 319 0
6 -216 109 -319 0
6 216 68 278 0
-6 216 -68 278 0
6 -216 68 -278 0
6 216 128 338 0
-6 216 -128 338 0
6 -216 128 -338 0
6 216 101 311 0
-6 216 -101 311 0
6 -216 101 -311 0
6 216 81 291 0
-6 216 -81 291 0
6 -216 81 -291 0
7 217 28 238 0
-7 217 -28 238 0
7 -217 28 -238 0
7 217 79 289 0
-7 217 -79 289 0
7 -217 79 -289 0
7 217 189 399 0
-7 217 -189 399 0
7 -217 189 -399 0
7 217 32 242 0
-7 217 -32 242 0
7 -217 32 -242 0
7 217 74 284 0
-7 217 -74 284 0
7 -217 74 -284 0
8 218 135 345 0
-8 218 -135 345 0
8 -218 135 -345 0
8 218 112 322 0
-8 218 -112 322 0
8 -218 112 -322 0
8 218 165 375 0
-8 218 -165 375 0
8 -218 165 -375 0
8 218 55 265 0
-8 218 -55 265 0
8 -218 55 -265 0
8 218 121 331 0
-8 218 -121 331 0
8 -218 121 -331 0
9 219 74 284 0
-9 219 -74 284 0
9 -219 74 -284 0
9 219 94 304 0
-9 219 -94 304 0
9 -219 94 -304 0
9 219 83 293 0
-9 219 -83 293 0
9 -219 83 -293 0
9 219 168 378 0
-9 219 -168 378 0
9 -219 168 -378 0
9 219 201 411 0
-9 219 -201 411 0
9 -219 201 -411 0
10 220 149 359 0
-10 220 -149 359 0
10 -220 149 -359 0
10 220 72 282 0
-10 220 -72 282 0
10 -220 72 -282 0
10 220 193 403 0
-10 220 -193 403 0
10 -220 193 -403 0
10 220 90 300 0
-10 220 -90 300 0
10 -220 90 -300 0
10 220 156 366 0
-10 220 -156 366 0
10 -220 156 -366 0
11 221 60 270 0
-11 221 -60 270 0
11 -221 60 -270 0
11 221 176 386 0
-11 221 -176 386 0
11 -221 176 -386 0
11 221 43 253 0
-11 221 -43 253 0
11 -221 43 -253 0
11 221 67 277 0
-11 221 -67 277 0
11 -221 67 -277 0
11 221 203 413 0
-11 221 -203 413 0
11 -221 203 -413 0
12 222 55 265 0
-12 222 -55 265 0
12 -222 55 -265 0
12 222 48 258 0
-12 222 -48 258 0
12 -222 48 -258 0
12 222 85 295 0
-12 222 -85 295 0
12 -222 85 -295 0
12 222 89 299 0
-12 222 -89 299 0
12 -222 89 -299 0
12 222 182 392 0
-12 222 -182 392 0
12 -222 182 -392 0
13 223 86 296 0
-13 223 -86 296 0
13 -223 86 -296 0
13 223 144 354 0
-13 223 -144 354 0
13 -223 144 -354 0
13 223 87 297 0
-13 223 -87 297 0
13 -223 87 -297 0
13 223 57 267 0
-13 223 -57 267 0
13 -223 57 -267 0
13 223 120 330 0
-13 223 -120 330 0
13 -223 120 -330 0
14 224 112 322 0
-14 224 -112 322 0
14 -224 112 -322 0
14 224 174 384 0
-14 224 -174 384 0
14 -224 174 -384 0
14 224 110 320 0
-14 224 -110 320 0
14 -224 110 -320 0
14 224 37 247 0
-14 224 -37 247 0
14 -224 37 -247 0
14 224 122 332 0
-14 224 -122 332 0
14 -224 122 -332 0
15 225 86 296 0
-15 225 -86 296 0
15 -225 86 -296 0
15 225 79 289 0
-15 225 -79 289 0
15 -225 79 -289 0
15 225 65 275 0
-15 225 -65 275 0
15 -225 65 -275 0
15 225 116 326 0
-15 225 -116 326 0
15 -225 116 -326 0
15 225 188 398 0
-15 225 -188 398 0
15 -225 188 -398 0
16 226 18 228 0
-16 226 -18 228 0
16 -226 18 -228 0
16 226 100 310 0
-16 226 -100 310 0
16 -226 100 -310 0
16 226 74 284 0
-16 226 -74 284 0
16 -226 74 -284 0
16 226 56 266 0
-16 226 -56 266 0
16 -226 56 -266 0
16 226 54 264 0
-16 226 -54 264 0
16 -226 54 -264 0
17 227 122 332 0
-17 227 -122 332 0
17 -227 122 -332 0
17 227 205 415 0
-17 227 -205 415 0
17 -227 205 -415 0
17 227 82 292 0
-17 227 -82 292 0
17 -227 82 -292 0
17 227 55 265 0
-17 227 -55 265 0
17 -227 55 -265 0
18 228 23 233 0
-18 228 -23 233 0
18 -228 23 -233 0
18 228 93 303 0
-18 228 -93 303 0
18 -228 93 -303 0
18 228 50 260 0
-18 228 -50 260 0
18 -228 50 -260 0
18 228 182 392 0
-18 228 -182 392 0
18 -228 182 -392 0
19 229 108 318 0
-19 229 -108 318 0
19 -229 108 -318 0
19 229 85 295 0
-19 229 -85 295 0
19 -229 85 -295 0
19 229 161 371 0
-19 229 -161 371 0
19 -229 161 -371 0
19 229 46 256 0
-19 229 -46 256 0
19 -229 46 -256 0
19 229 65 275 0
-19 229 -65 275 0
19 -229 65 -275 0
20 230 176 386 0
-20 230 -176 386 0
20 -230 176 -386 0
20 230 182 392 0
-20 230 -182 392 0
20 -230 182 -392 0
20 230 57 267 0
-20 230 -57 267 0
20 -230 57 -267 0
20 230 57 267 0
-20 230 -57 267 0
20 -230 57 -267 0
20 230 200 410 0
-20 230 -200 410 0
20 -230 200 -410 0
21 231 88 298 0
-21 231 -88 298 0
21 -231 88 -298 0
21 231 146 356 0
-21 231 -146 356 0
21 -231 146 -356 0
21 231 181 391 0
-21 231 -181 391 0
21 -231 181 -391 0
21 231 137 347 0
-21 231 -137 347 0
21 -231 137 -347 0
21 231 34 244 0
-21 231 -34 244 0
21 -231 34 -244 0
22 232 123 333 0
-22 232 -123 333 0
22 -232 123 -333 0
22 232 28 238 0
-22 232 -28 238 0
22 -232 28 -238 0
22 232 64 274 0
-22 232 -64 274 0
22 -232 64 -274 0
22 232 206 416 0
-22 232 -206 416 0
22 -232 206 -416 0
22 232 163 373 0
-22 232 -163 373 0
22 -232 163 -373 0
23 233 36 246 0
-23 233 -36 246 0
23 -233 36 -246 0
23 233 115 325 0
-23 233 -115 325 0
23 -233 115 -325 0
23 233 174 384 0
-23 233 -174 384 0
23 -233 174 -384 0
23 233 164 374 0
-23 233 -164 374 0
23 -233 164 -374 0
24 234 155 365 0
-24 234 -155 365 0
24 -234 155 -365 0
24 234 86 296 0
-24 234 -86 296 0
24 -234 86 -296 0
24 234 201 411 0
-24 234 -201 411 0
24 -234 201 -411 0
24 234 63 273 0
-24 234 -63 273 0
24 -234 63 -273 0
24 234 144 354 0
-24 234 -144 354 0
24 -234 144 -354 0
25 235 86 296 0
-25 235 -86 296 0
25 -235 86 -296 0
25 235 77 287 0
-25 235 -77 287 0
25 -235 77 -287 0
25 235 151 361 0
-25 235 -151 361 0
25 -235 151 -361 0
25 235 75 285 0
-25 235 -75 285 0
25 -235 75 -285 0
25 235 123 333 0
-25 235 -123 333 0
25 -235 123 -333 0
26 236 43 253 0
-26 236 -43 253 0
26 -236 43 -253 0
26 236 197 407 0
-26 236 -197 407 0
26 -236 197 -407 0
26 236 71 281 0
-26 236 -71 281 0
26 -236 71 -281 0
26 236 48 258 0
-26 236 -48 258 0
26 -236 48 -258 0
26 236 78 288 0
-26 236 -78 288 0
26 -236 78 -288 0
27 237 154 364 0
-27 237 -154 364 0
27 -237 154 -364 0
27 237 116 326 0
-27 237 -116 326 0
27 -237 116 -326 0
27 237 153 363 0
-27 237 -153 363 0
27 -237 153 -363 0
27 237 53 263 0
-27 237 -53 263 0
27 -237 53 -263 0
28 238 137 347 0
-28 238 -137 347 0
28 -238 137 -347 0
28 238 164 374 0
-28 238 -164 374 0
28 -238 164 -374 0
28 238 175 385 0
-28 238 -175 385 0
28 -238 175 -385 0
29 239 144 354 0
-29 239 -144 354 0
29 -239 144 -354 0
29 239 121 331 0
-29 239 -121 331 0
29 -239 121 -331 0
29 239 177 387 0
-29 239 -177 387 0
29 -239 177 -387 0
29 239 76 286 0
-29 239 -76 286 0
29 -239 76 -286 0
29 239 41 251 0
-29 239 -41 251 0
29 -239 41 -251 0
30 240 130 340 0
-30 240 -130 340 0
30 -240 130 -340 0
30 240 157 367 0
-30 240 -157 367 0
30 -240 157 -367 0
30 240 40 250 0
-30 240 -40 250 0
30 -240 40 -250 0
30 240 161 371 0
-30 240 -161 371 0
30 -240 161 -371 0
30 240 41 251 0
-30 240 -41 251 0
30 -240 41 -251 0
31 241 58 268 0
-31 241 -58 268 0
31 -241 58 -268 0
31 241 106 316 0
-31 241 -106 316 0
31 -241 106 -316 0
31 241 133 343 0
-31 241 -133 343 0
31 -241 133 -343 0
31 241 105 315 0
-31 241 -105 315 0
31 -241 105 -315 0
31 241 37 247 0
-31 241 -37 247 0
31 -241 37 -247 0
32 242 151 361 0
-32 242 -151 361 0
32 -242 151 -361 0
32 242 162 372 0
-32 242 -162 372 0
32 -242 162 -372 0
32 242 40 250 0
-32 242 -40 250 0
32 -242 40 -250 0
32 242 208 418 0
-32 242 -208 418 0
32 -242 208 -418 0
33 243 91 301 0
-33 243 -91 301 0
33 -243 91 -301 0
33 243 189 399 0
-33 243 -189 399 0
33 -243 189 -399 0
33 243 62 272 0
-33 243 -62 272 0
33 -243 62 -272 0
33 243 92 302 0
-33 243 -92 302 0
33 -243 92 -302 0
33 243 158 368 0
-33 243 -158 368 0
33 -243 158 -368 0
34 244 175 385 0
-34 244 -175 385 0
34 -244 175 -385 0
34 244 67 277 0
-34 244 -67 277 0
34 -244 67 -277 0
34 244 122 332 0
-34 244 -122 332 0
34 -244 122 -332 0
34 244 38 248 0
-34 244 -38 248 0
34 -244 38 -248 0
35 245 158 368 0
-35 245 -158 368 0
35 -245 158 -368 0
35 245 170 380 0
-35 245 -170 380 0
35 -245 170 -380 0
35 245 81 291 0
-35 245 -81 291 0
35 -245 81 -291 0
35 245 69 279 0
-35 245 -69 279 0
35 -245 69 -279 0
35 245 64 274 0
-35 245 -64 274 0
35 -245 64 -274 0
36 246 43 253 0
-36 246 -43 253 0
36 -246 43 -253 0
36 246 149 359 0
-36 246 -149 359 0
36 -246 149 -359 0
36 246 85 295 0
-36 246 -85 295 0
36 -246 85 -295 0
36 246 160 370 0
-36 246 -160 370 0
36 -246 160 -370 0
37 247 117 327 0
-37 247 -117 327 0
37 -247 117 -327 0
37 247 80 290 0
-37 247 -80 290 0
37 -247 80 -290 0
37 247 186 396 0
-37 247 -186 396 0
37 -247 186 -396 0
38 248 94 304 0
-38 248 -94 304 0
38 -248 94 -304 0
38 248 184 394 0
-38 248 -184 394 0
38 -248 184 -394 0
38 248 119 329 0
-38 248 -119 329 0
38 -248 119 -329 0
38 248 61 271 0
-38 248 -61 271 0
38 -248 61 -271 0
39 249 136 346 0
-39 249 -136 346 0
39 -249 136 -346 0
39 249 108 318 0
-39 249 -108 318 0
39 -249 108 -318 0
39 249 108 318 0
-39 249 -108 318 0
39 -249 108 -318 0
39 249 106 316 0
-39 249 -106 316 0
39 -249 106 -316 0
39 249 168 378 0
-39 249 -168 378 0
39 -249 168 -378 0
40 250 47 257 0
-40 250 -47 257 0
40 -250 47 -257 0
40 250 191 401 0
-40 250 -191 401 0
40 -250 191 -401 0
40 250 141 351 0
-40 250 -141 351 0
40 -250 141 -351 0
41 251 46 256 0
-41 251 -46 256 0
41 -251 46 -256 0
41 251 62 272 0
-41 251 -62 272 0
41 -251 62 -272 0
41 251 151 361 0
-41 251 -151 361 0
41 -251 151 -361 0
42 252 184 394 0
-42 252 -184 394 0
42 -252 184 -394 0
42 252 118 328 0
-42 252 -118 328 0
42 -252 118 -328 0
42 252 65 275 0
-42 252 -65 275 0
42 -252 65 -275 0
42 252 52 262 0
-42 252 -52 262 0
42 -252 52 -262 0
42 252 119 329 0
-42 252 -119 329 0
42 -252 119 -329 0
43 253 124 334 0
-43 253 -124 334 0
43 -253 124 -334 0
43 253 77 287 0
-43 253 -77 287 0
43 -253 77 -287 0
44 254 103 313 0
-44 254 -103 313 0
44 -254 103 -313 0
44 254 117 327 0
-44 254 -117 327 0
44 -254 117 -327 0
44 254 186 396 0
-44 254 -186 396 0
44 -254 186 -396 0
44 254 79 289 0
-44 254 -79 289 0
44 -254 79 -289 0
44 254 184 394 0
-44 254 -184 394 0
44 -254 184 -394 0
45 255 195 405 0
-45 255 -195 405 0
45 -255 195 -405 0
45 255 140 350 0
-45 255 -140 350 0
45 -255 140 -350 0
45 255 185 395 0
-45 255 -185 395 0
45 -255 185 -395 0
45 255 112 322 0
-45 255 -112 322 0
45 -255 112 -322 0
46 256 90 300 0
-46 256 -90 300 0
46 -256 90 -300 0
46 256 70 280 0
-46 256 -70 280 0
46 -256 70 -280 0
46 256 127 337 0
-46 256 -127 337 0
46 -256 127 -337 0
47 257 101 311 0
-47 257 -101 311 0
47 -257 101 -311 0
47 257 77 287 0
-47 257 -77 287 0
47 -257 77 -287 0
47 257 110 320 0
-47 257 -110 320 0
47 -257 110 -320 0
47 257 180 390 0
-47 257 -180 390 0
47 -257 180 -390 0
48 258 55 265 0
-48 258 -55 265 0
48 -258 55 -265 0
48 258 98 308 0
-48 258 -98 308 0
48 -258 98 -308 0
48 258 203 413 0
-48 258 -203 413 0
48 -258 203 -413 0
49 259 166 376 0
-49 259 -166 376 0
49 -259 166 -376 0
49 259 75 285 0
-49 259 -75 285 0
49 -259 75 -285 0
49 259 59 269 0
-49 259 -59 269 0
49 -259 59 -269 0
49 259 152 362 0
-49 259 -152 362 0
49 -259 152 -362 0
49 259 142 352 0
-49 259 -142 352 0
49 -259 142 -352 0
50 260 53 263 0
-50 260 -53 263 0
50 -260 53 -263 0
50 260 196 406 0
-50 260 -196 406 0
50 -260 196 -406 0
50 260 66 276 0
-50 260 -66 276 0
50 -260 66 -276 0
50 260 135 345 0
-50 260 -135 345 0
50 -260 135 -345 0
51 261 104 314 0
-51 261 -104 314 0
51 -261 104 -314 0
51 261 128 338 0
-51 261 -128 338 0
51 -261 128 -338 0
51 261 66 276 0
-51 261 -66 276 0
51 -261 66 -276 0
51 261 192 402 0
-51 261 -192 402 0
51 -261 192 -402 0
51 261 171 381 0
-51 261 -171 381 0
51 -261 171 -381 0
52 262 80 290 0
-52 262 -80 290 0
52 -262 80 -290 0
52 262 123 333 0
-52 262 -123 333 0
52 -262 123 -333 0
52 262 102 312 0
-52 262 -102 312 0
52 -262 102 -312 0
52 262 182 392 0
-52 262 -182 392 0
52 -262 182 -392 0
53 263 60 270 0
-53 263 -60 270 0
53 -263 60 -270 0
53 263 155 365 0
-53 263 -155 365 0
53 -263 155 -365 0
53 263 187 397 0
-53 263 -187 397 0
53 -263 187 -397 0
54 264 195 405 0
-54 264 -195 405 0
54 -264 195 -405 0
54 264 149 359 0
-54 264 -149 359 0
54 -264 149 -359 0
54 264 56 266 0
-54 264 -56 266 0
54 -264 56 -266 0
54 264 97 307 0
-54 264 -97 307 0
54 -264 97 -307 0
55 265 210 420 0
-55 265 -210 420 0
55 -265 210 -420 0
56 266 107 317 0
-56 266 -107 317 0
56 -266 107 -317 0
56 266 60 270 0
-56 266 -60 270 0
56 -266 60 -270 0
56 266 177 387 0
-56 266 -177 387 0
56 -266 177 -387 0
57 267 114 324 0
-57 267 -114 324 0
57 -267 114 -324 0
57 267 143 353 0
-57 267 -143 353 0
57 -267 143 -353 0
58 268 146 356 0
-58 268 -146 356 0
58 -268 146 -356 0
58 268 153 363 0
-58 268 -153 363 0
58 -268 153 -363 0
58 268 149 359 0
-58 268 -149 359 0
58 -268 149 -359 0
58 268 105 315 0
-58 268 -105 315 0
58 -268 105 -315 0
59 269 138 348 0
-59 269 -138 348 0
59 -269 138 -348 0
59 269 125 335 0
-59 269 -125 335 0
59 -269 125 -335 0
59 269 185 395 0
-59 269 -185 395 0
59 -269 185 -395 0
59 269 207 417 0
-59 269 -207 417 0
59 -269 207 -417 0
60 270 172 382 0
-60 270 -172 382 0
60 -270 172 -382 0
60 270 188 398 0
-60 270 -188 398 0
60 -270 188 -398 0
61 271 72 282 0
-61 271 -72 282 0
61 -271 72 -282 0
61 271 187 397 0
-61 271 -187 397 0
61 -271 187 -397 0
61 271 179 389 0
-61 271 -179 389 0
61 -271 179 -389 0
61 271 166 376 0
-61 271 -166 376 0
61 -271 166 -376 0
62 272 178 388 0
-62 272 -178 388 0
62 -272 178 -388 0
62 272 160 370 0
-62 272 -160 370 0
62 -272 160 -370 0
62 272 73 283 0
-62 272 -73 283 0
62 -272 73 -283 0
63 273 129 339 0
-63 273 -129 339 0
63 -273 129 -339 0
63 273 98 308 0
-63 273 -98 308 0
63 -273 98 -308 0
63 273 210 420 0
-63 273 -210 420 0
63 -273 210 -420 0
63 273 150 360 0
-63 273 -150 360 0
63 -273 150 -360 0
64 274 107 317 0
-64 274 -107 317 0
64 -274 107 -317 0
64 274 203 413 0
-64 274 -203 413 0
64 -274 203 -413 0
64 274 146 356 0
-64 274 -146 356 0
64 -274 146 -356 0
65 275 123 333 0
-65 275 -123 333 0
65 -275 123 -333 0
65 275 136 346 0
-65 275 -136 346 0
65 -275 136 -346 0
66 276 110 320 0
-66 276 -110 320 0
66 -276 110 -320 0
66 276 115 325 0
-66 276 -115 325 0
66 -276 115 -325 0
67 277 137 347 0
-67 277 -137 347 0
67 -277 137 -347 0
67 277 180 390 0
-67 277 -180 390 0
67 -277 180 -390 0
67 277 133 343 0
-67 277 -133 343 0
67 -277 133 -343 0
68 278 132 342 0
-68 278 -132 342 0
68 -278 132 -342 0
68 278 131 341 0
-68 278 -131 341 0
68 -278 131 -341 0
68 278 181 391 0
-68 278 -181 391 0
68 -278 181 -391 0
68 278 199 409 0
-68 278 -199 409 0
68 -278 199 -409 0
69 279 173 383 0
-69 279 -173 383 0
69 -279 173 -383 0
69 279 202 412 0
-69 279 -202 412 0
69 -279 202 -412 0
69 279 99 309 0
-69 279 -99 309 0
69 -279 99 -309 0
69 279 208 418 0
-69 279 -208 418 0
69 -279 208 -418 0
70 280 101 311 0
-70 280 -101 311 0
70 -280 101 -311 0
70 280 104 314 0
-70 280 -104 314 0
70 -280 104 -314 0
70 280 104 314 0
-70 280 -104 314 0
70 -280 104 -314 0
70 280 175 385 0
-70 280 -175 385 0
70 -280 175 -385 0
71 281 169 379 0
-71 281 -169 379 0
71 -281 169 -379 0
71 281 180 390 0
-71 281 -180 390 0
71 -281 180 -390 0
71 281 157 367 0
-71 281 -157 367 0
71 -281 157 -367 0
71 281 142 352 0
-71 281 -142 352 0
71 -281 142 -352 0
72 282 184 394 0
-72 282 -184 394 0
72 -282 184 -394 0
72 282 173 383 0
-72 282 -173 383 0
72 -282 173 -383 0
72 282 209 419 0
-72 282 -209 419 0
72 -282 209 -419 0
73 283 209 419 0
-73 283 -209 419 0
73 -283 209 -419 0
73 283 143 353 0
-73 283 -143 353 0
73 -283 143 -353 0
73 283 106 316 0
-73 283 -106 316 0
73 -283 106 -316 0
73 283 157 367 0
-73 283 -157 367 0
73 -283 157 -367 0
74 284 122 332 0
-74 284 -122 332 0
74 -284 122 -332 0
75 285 88 298 0
-75 285 -88 298 0
75 -285 88 -298 0
75 285 161 371 0
-75 285 -161 371 0
75 -285 161 -371 0
75 285 185 395 0
-75 285 -185 395 0
75 -285 185 -395 0
76 286 94 304 0
-76 286 -94 304 0
76 -286 94 -304 0
76 286 126 336 0
-76 286 -126 336 0
76 -286 126 -336 0
76 286 169 379 0
-76 286 -169 379 0
76 -286 169 -379 0
76 286 140 350 0
-76 286 -140 350 0
76 -286 140 -350 0
77 287 177 387 0
-77 287 -177 387 0
77 -287 177 -387 0
77 287 152 362 0
-77 287 -152 362 0
77 -287 152 -362 0
78 288 123 333 0
-78 288 -123 333 0
78 -288 123 -333 0
78 288 132 342 0
-78 288 -132 342 0
78 -288 132 -342 0
78 288 89 299 0
-78 288 -89 299 0
78 -288 89 -299 0
78 288 152 362 0
-78 288 -152 362 0
78 -288 152 -362 0
79 289 192 402 0
-79 289 -192 402 0
79 -289 192 -402 0
79 289 164 374 0
-79 289 -164 374 0
79 -289 164 -374 0
80 290 185 395 0
-80 290 -185 395 0
80 -290 185 -395 0
80 290 141 351 0
-80 290 -141 351 0
80 -290 141 -351 0
80 290 178 388 0
-80 290 -178 388 0
80 -290 178 -388 0
81 291 154 364 0
-81 291 -154 364 0
81 -291 154 -364 0
81 291 203 413 0
-81 291 -203 413 0
81 -291 203 -413 0
81 291 159 369 0
-81 291 -159 369 0
81 -291 159 -369 0
82 292 139 349 0
-82 292 -139 349 0
82 -292 139 -349 0
82 292 167 377 0
-82 292 -167 377 0
82 -292 167 -377 0
82 292 158 368 0
-82 292 -158 368 0
82 -292 158 -368 0
82 292 203 413 0
-82 292 -203 413 0
82 -292 203 -413 0
83 293 208 418 0
-83 293 -208 418 0
83 -293 208 -418 0
83 293 178 388 0
-83 293 -178 388 0
83 -293 178 -388 0
83 293 198 408 0
-83 293 -198 408 0
83 -293 198 -408 0
83 293 191 401 0
-83 293 -191 401 0
83 -293 191 -401 0
84 294 174 384 0
-84 294 -174 384 0
84 -294 174 -384 0
84 294 140 350 0
-84 294 -140 350 0
84 -294 140 -350 0
84 294 87 297 0
-84 294 -87 297 0
84 -294 87 -297 0
84 294 147 357 0
-84 294 -147 357 0
84 -294 147 -357 0
84 294 192 402 0
-84 294 -192 402 0
84 -294 192 -402 0
85 295 139 349 0
-85 295 -139 349 0
85 -295 139 -349 0
86 296 115 325 0
-86 296 -115 325 0
86 -296 115 -325 0
87 297 135 345 0
-87 297 -135 345 0
87 -297 135 -345 0
87 297 191 401 0
-87 297 -191 401 0
87 -297 191 -401 0
88 298 187 397 0
-88 298 -187 397 0
88 -298 187 -397 0
88 298 109 319 0
-88 298 -109 319 0
88 -298 109 -319 0
88 298 210 420 0
-88 298 -210 420 0
88 -298 210 -420 0
89 299 136 346 0
-89 299 -136 346 0
89 -299 136 -346 0
89 299 110 320 0
-89 299 -110 320 0
89 -299 110 -320 0
89 299 105 315 0
-89 299 -105 315 0
89 -299 105 -315 0
90 300 99 309 0
-90 300 -99 309 0
90 -300 99 -309 0
90 300 148 358 0
-90 300 -148 358 0
90 -300 148 -358 0
90 300 189 399 0
-90 300 -189 399 0
90 -300 189 -399 0
91 301 117 327 0
-91 301 -117 327 0
91 -301 117 -327 0
91 301 128 338 0
-91 301 -128 338 0
91 -301 128 -338 0
91 301 120 330 0
-91 301 -120 330 0
91 -301 120 -330 0
91 301 202 412 0
-91 301 -202 412 0
91 -301 202 -412 0
92 302 114 324 0
-92 302 -114 324 0
92 -302 114 -324 0
92 302 190 400 0
-92 302 -190 400 0
92 -302 190 -400 0
92 302 107 317 0
-92 302 -107 317 0
92 -302 107 -317 0
92 302 118 328 0
-92 302 -118 328 0
92 -302 118 -328 0
93 303 113 323 0
-93 303 -113 323 0
93 -303 113 -323 0
93 303 195 405 0
-93 303 -195 405 0
93 -303 195 -405 0
93 303 157 367 0
-93 303 -157 367 0
93 -303 157 -367 0
93 303 172 382 0
-93 303 -172 382 0
93 -303 172 -382 0
94 304 162 372 0
-94 304 -162 372 0
94 -304 162 -372 0
94 304 195 405 0
-94 304 -195 405 0
94 -304 195 -405 0
95 305 210 420 0
-95 305 -210 420 0
95 -305 210 -420 0
95 305 96 306 0
-95 305 -96 306 0
95 -305 96 -306 0
95 305 111 321 0
-95 305 -111 321 0
95 -305 111 -321 0
95 305 201 411 0
-95 305 -201 411 0
95 -305 201 -411 0
96 306 192 402 0
-96 306 -192 402 0
96 -306 192 -402 0
96 306 198 408 0
-96 306 -198 408 0
96 -306 198 -408 0
96 306 111 321 0
-96 306 -111 321 0
96 -306 111 -321 0
96 306 201 411 0
-96 306 -201 411 0
96 -306 201 -411 0
97 307 99 309 0
-97 307 -99 309 0
97 -307 99 -309 0
97 307 99 309 0
-97 307 -99 309 0
97 -307 99 -309 0
97 307 135 345 0
-97 307 -135 345 0
97 -307 135 -345 0
97 307 182 392 0
-97 307 -182 392 0
97 -307 182 -392 0
98 308 130 340 0
-98 308 -130 340 0
98 -308 130 -340 0
98 308 194 404 0
-98 308 -194 404 0
98 -308 194 -404 0
98 308 163 373 0
-98 308 -163 373 0
98 -308 163 -373 0
99 309 207 417 0
-99 309 -207 417 0
99 -309 207 -417 0
100 310 183 393 0
-100 310 -183 393 0
100 -310 183 -393 0
100 310 173 383 0
-100 310 -173 383 0
100 -310 173 -383 0
100 310 206 416 0
-100 310 -206 416 0
100 -310 206 -416 0
100 310 186 396 0
-100 310 -186 396 0
100 -310 186 -396 0
101 311 208 418 0
-101 311 -208 418 0
101 -311 208 -418 0
101 311 118 328 0
-101 311 -118 328 0
101 -311 118 -328 0
102 312 116 326 0
-102 312 -116 326 0
102 -312 116 -326 0
102 312 159 369 0
-102 312 -159 369 0
102 -312 159 -369 0
102 312 204 414 0
-102 312 -204 414 0
102 -312 204 -414 0
102 312 114 324 0
-102 312 -114 324 0
102 -312 114 -324 0
103 313 159 369 0
-103 313 -159 369 0
103 -313 159 -369 0
103 313 174 384 0
-103 313 -174 384 0
103 -313 174 -384 0
103 313 183 393 0
-103 313 -183 393 0
103 -313 183 -393 0
103 313 109 319 0
-103 313 -109 319 0
103 -313 109 -319 0
104 314 148 358 0
-104 314 -148 358 0
104 -314 148 -358 0
105 315 124 334 0
-105 315 -124 334 0
105 -315 124 -334 0
105 315 200 410 0
-105 315 -200 410 0
105 -315 200 -410 0
106 316 140 350 0
-106 316 -140 350 0
106 -316 140 -350 0
106 316 125 335 0
-106 316 -125 335 0
106 -316 125 -335 0
107 317 186 396 0
-107 317 -186 396 0
107 -317 186 -396 0
107 317 115 325 0
-107 317 -115 325 0
107 -317 115 -325 0
108 318 167 377 0
-108 318 -167 377 0
108 -318 167 -377 0
108 318 126 336 0
-108 318 -126 336 0
108 -318 126 -336 0
109 319 148 358 0
-109 319 -148 358 0
109 -319 148 -358 0
109 319 148 358 0
-109 319 -148 358 0
109 -319 148 -358 0
110 320 194 404 0
-110 320 -194 404 0
110 -320 194 -404 0
111 321 163 373 0
-111 321 -163 373 0
111 -321 163 -373 0
111 321 117 327 0
-111 321 -117 327 0
111 -321 117 -327 0
111 321 112 322 0
-111 321 -112 322 0
111 -321 112 -322 0
112 322 199 409 0
-112 322 -199 409 0
112 -322 199 -409 0
113 323 148 358 0
-113 323 -148 358 0
113 -323 148 -358 0
113 323 144 354 0
-113 323 -144 354 0
113 -323 144 -354 0
113 323 170 380 0
-113 323 -170 380 0
113 -323 170 -380 0
113 323 206 416 0
-113 323 -206 416 0
113 -323 206 -416 0
114 324 138 348 0
-114 324 -138 348 0
114 -324 138 -348 0
114 324 202 412 0
-114 324 -202 412 0
114 -324 202 -412 0
115 325 145 355 0
-115 325 -145 355 0
115 -325 145 -355 0
116 326 127 337 0
-116 326 -127 337 0
116 -326 127 -337 0
116 326 189 399 0
-116 326 -189 399 0
116 -326 189 -399 0
118 328 155 365 0
-118 328 -155 365 0
118 -328 155 -365 0
118 328 134 344 0
-118 328 -134 344 0
118 -328 134 -344 0
119 329 142 352 0
-119 329 -142 352 0
119 -329 142 -352 0
119 329 188 398 0
-119 329 -188 398 0
119 -329 188 -398 0
119 329 183 393 0
-119 329 -183 393 0
119 -329 183 -393 0
120 330 134 344 0
-120 330 -134 344 0
120 -330 134 -344 0
120 330 184 394 0
-120 330 -184 394 0
120 -330 184 -394 0
120 330 194 404 0
-120 330 -194 404 0
120 -330 194 -404 0
121 331 135 345 0
-121 331 -135 345 0
121 -331 135 -345 0
121 331 131 341 0
-121 331 -131 341 0
121 -331 131 -341 0
121 331 153 363 0
-121 331 -153 363 0
121 -331 153 -363 0
122 332 199 409 0
-122 332 -199 409 0
122 -332 199 -409 0
124 334 139 349 0
-124 334 -139 349 0
124 -334 139 -349 0
124 334 128 338 0
-124 334 -128 338 0
124 -334 128 -338 0
124 334 193 403 0
-124 334 -193 403 0
124 -334 193 -403 0
125 335 157 367 0
-125 335 -157 367 0
125 -335 157 -367 0
125 335 155 365 0
-125 335 -155 365 0
125 -335 155 -365 0
126 336 159 369 0
-126 336 -159 369 0
126 -336 159 -369 0
126 336 147 357 0
-126 336 -147 357 0
126 -336 147 -357 0
126 336 181 391 0
-126 336 -181 391 0
126 -336 181 -391 0
127 337 132 342 0
-127 337 -132 342 0
127 -337 132 -342 0
127 337 189 399 0
-127 337 -189 399 0
127 -337 189 -399 0
128 338 169 379 0
-128 338 -169 379 0
128 -338 169 -379 0
129 339 150 360 0
-129 339 -150 360 0
129 -339 150 -360 0
129 339 175 385 0
-129 339 -175 385 0
129 -339 175 -385 0
129 339 197 407 0
-129 339 -197 407 0
129 -339 197 -407 0
130 340 168 378 0
-130 340 -168 378 0
130 -340 168 -378 0
130 340 141 351 0
-130 340 -141 351 0
130 -340 141 -351 0
130 340 206 416 0
-130 340 -206 416 0
130 -340 206 -416 0
131 341 175 385 0
-131 341 -175 385 0
131 -341 175 -385 0
131 341 196 406 0
-131 341 -196 406 0
131 -341 196 -406 0
131 341 167 377 0
-131 341 -167 377 0
131 -341 167 -377 0
132 342 176 386 0
-132 342 -176 386 0
132 -342 176 -386 0
133 343 173 383 0
-133 343 -173 383 0
133 -343 173 -383 0
133 343 180 390 0
-133 343 -180 390 0
133 -343 180 -390 0
133 343 208 418 0
-133 343 -208 418 0
133 -343 208 -418 0
134 344 172 382 0
-134 344 -172 382 0
134 -344 172 -382 0
134 344 198 408 0
-134 344 -198 408 0
134 -344 198 -408 0
136 346 156 366 0
-136 346 -156 366 0
136 -346 156 -366 0
136 346 141 351 0
-136 346 -141 351 0
136 -346 141 -351 0
137 347 187 397 0
-137 347 -187 397 0
137 -347 187 -397 0
137 347 141 351 0
-137 347 -141 351 0
137 -347 141 -351 0
138 348 183 393 0
-138 348 -183 393 0
138 -348 183 -393 0
138 348 198 408 0
-138 348 -198 408 0
138 -348 198 -408 0
138 348 191 401 0
-138 348 -191 401 0
138 -348 191 -401 0
139 349 191 401 0
-139 349 -191 401 0
139 -349 191 -401 0
139 349 176 386 0
-139 349 -176 386 0
139 -349 176 -386 0
140 350 159 369 0
-140 350 -159 369 0
140 -350 159 -369 0
142 352 170 380 0
-142 352 -170 380 0
142 -352 170 -380 0
142 352 168 378 0
-142 352 -168 378 0
142 -352 168 -378 0
143 353 152 362 0
-143 353 -152 362 0
143 -353 152 -362 0
143 353 144 354 0
-143 353 -144 354 0
143 -353 144 -354 0
143 353 150 360 0
-143 353 -150 360 0
143 -353 150 -360 0
145 355 168 378 0
-145 355 -168 378 0
145 -355 168 -378 0
145 355 205 415 0
-145 355 -205 415 0
145 -355 205 -415 0
145 355 150 360 0
-145 355 -150 360 0
145 -355 150 -360 0
145 355 177 387 0
-145 355 -177 387 0
145 -355 177 -387 0
146 356 151 361 0
-146 356 -151 361 0
146 -356 151 -361 0
146 356 179 389 0
-146 356 -179 389 0
146 -356 179 -389 0
147 357 170 380 0
-147 357 -170 380 0
147 -357 170 -380 0
147 357 204 414 0
-147 357 -204 414 0
147 -357 204 -414 0
147 357 199 409 0
-147 357 -199 409 0
147 -357 199 -409 0
149 359 150 360 0
-149 359 -150 360 0
149 -359 150 -360 0
151 361 176 386 0
-151 361 -176 386 0
151 -361 176 -386 0
152 362 193 403 0
-152 362 -193 403 0
152 -362 193 -403 0
153 363 201 411 0
-153 363 -201 411 0
153 -363 201 -411 0
154 364 174 384 0
-154 364 -174 384 0
154 -364 174 -384 0
154 364 167 377 0
-154 364 -167 377 0
154 -364 167 -377 0
154 364 158 368 0
-154 364 -158 368 0
154 -364 158 -368 0
155 365 171 381 0
-155 365 -171 381 0
155 -365 171 -381 0
156 366 179 389 0
-156 366 -179 389 0
156 -366 179 -389 0
156 366 197 407 0
-156 366 -197 407 0
156 -366 197 -407 0
160 370 198 408 0
-160 370 -198 408 0
160 -370 198 -408 0
160 370 186 396 0
-160 370 -186 396 0
160 -370 186 -396 0
160 370 165 375 0
-160 370 -165 375 0
160 -370 165 -375 0
161 371 200 410 0
-161 371 -200 410 0
161 -371 200 -410 0
162 372 193 403 0
-162 372 -193 403 0
162 -372 193 -403 0
162 372 166 376 0
-162 372 -166 376 0
162 -372 166 -376 0
162 372 204 414 0
-162 372 -204 414 0
162 -372 204 -414 0
163 373 171 381 0
-163 373 -171 381 0
163 -373 171 -381 0
163 373 171 381 0
-163 373 -171 381 0
163 -373 171 -381 0
164 374 165 375 0
-164 374 -165 375 0
164 -374 165 -375 0
164 374 199 409 0
-164 374 -199 409 0
164 -374 199 -409 0
165 375 195 405 0
-165 375 -195 405 0
165 -375 195 -405 0
165 375 207 417 0
-165 375 -207 417 0
165 -375 207 -417 0
166 376 197 407 0
-166 376 -197 407 0
166 -376 197 -407 0
166 376 171 381 0
-166 376 -171 381 0
166 -376 171 -381 0
167 377 183 393 0
-167 377 -183 393 0
167 -377 183 -393 0
169 379 172 382 0
-169 379 -172 382 0
169 -379 172 -382 0
169 379 190 400 0
-169 379 -190 400 0
169 -379 190 -400 0
172 382 196 406 0
-172 382 -196 406 0
172 -382 196 -406 0
173 383 205 415 0
-173 383 -205 415 0
173 -383 205 -415 0
177 387 179 389 0
-177 387 -179 389 0
177 -387 179 -389 0
178 388 197 407 0
-178 388 -197 407 0
178 -388 197 -407 0
178 388 200 410 0
-178 388 -200 410 0
178 -388 200 -410 0
179 389 190 400 0
-179 389 -190 400 0
179 -389 190 -400 0
181 391 200 410 0
-181 391 -200 410 0
181 -391 200 -410 0
185 395 194 404 0
-185 395 -194 404 0
185 -395 194 -404 0
187 397 207 417 0
-187 397 -207 417 0
187 -397 207 -417 0
188 398 205 415 0
-188 398 -205 415 0
188 -398 205 -415 0
190 400 202 412 0
-190 400 -202 412 0
190 -400 202 -412 0
190 400 196 406 0
-190 400 -196 406 0
190 -400 196 -406 0
192 402 205 415 0
-192 402 -205 415 0
192 -402 205 -415 0
193 403 209 419 0
-193 403 -209 419 0
193 -403 209 -419 0
194 404 196 406 0
-194 404 -196 406 0
194 -404 196 -406 0
202 412 206 416 0
-202 412 -206 416 0
202 -412 206 -416 0
204 414 210 420 0
-204 414 -210 420 0
204 -414 210 -420 0
207 417 209 419 0
-207 417 -209 419 0
207 -417 209 -419 0
